; benchmark generated from python API
(set-info :status unknown)
(declare-fun S_2 () Real)
(declare-fun S_4 () Real)
(declare-fun C () Real)
(declare-fun S_1 () Real)
(declare-fun S_0 () Real)
(declare-fun S_3 () Real)
(declare-fun A_0 () Real)
(declare-fun L_0 () Real)
(declare-fun L0 () Real)
(declare-fun B () Real)
(declare-fun A_3 () Real)
(declare-fun A_4 () Real)
(declare-fun A_1 () Real)
(declare-fun L_2 () Real)
(declare-fun A_2 () Real)
(declare-fun L_1 () Real)
(assert
 (let (($x37 (>= L0 0.0)))
 (let (($x774 (>= C 5.0)))
 (let (($x943 (>= B 5.0)))
 (let ((?x346 (* (- 1.0) S_1)))
 (let ((?x380 (* (- 1.0) A_4)))
 (let ((?x236 (* (- 1.0) B)))
 (let ((?x2207 (* (- 3.0) C)))
 (let (($x8520 (<= (+ (* (- 4.0) C) ?x236 S_4 ?x380 A_3 (* (- 1.0) S_0)) 0.0)))
 (let (($x8530 (<= (+ (* (- 1.0) C) ?x236 S_4 (* (- 1.0) S_3) ?x380 A_3) 0.0)))
 (let (($x8525 (<= (+ (* (- 2.0) C) ?x236 S_4 ?x380 A_3 (* (- 1.0) S_2)) 0.0)))
 (let (($x8502 (<= (+ L_0 ?x236 S_4 (* (- 1.0) A_1) ?x380 A_3 (* (- 2.0) C)) 0.0)))
 (let (($x8430 (<= (+ (* (- 1.0) L_0) (* (- 1.0) S_4) A_1 (* 2.0 C)) 0.0)))
 (let (($x8199 (<= 0.0 (+ L_0 C (* (- 1.0) A_1) S_0))))
 (let (($x8228 (not $x8199)))
 (let (($x1048 (>= S_4 (+ A_3 (* (- 1.0) L_2)))))
 (let (($x8136 (or $x1048 $x8199 (<= (+ (* 3.0 C) (* (- 1.0) S_4) S_0) 0.0))))
 (let (($x64 (= L_2 L_1)))
 (let (($x7459 (or $x8228 (<= (+ (* (- 1.0) L_0) A_1 (* (- 1.0) S_3) C) 0.0))))
 (let ((?x372 (* (- 1.0) A_1)))
 (let ((?x262 (* (- 1.0) L_2)))
 (let ((?x303 (* (- 1.0) C)))
 (let (($x8214 (or (not (<= (+ A_1 (* (- 1.0) L_0)) (+ ?x236 ?x262 A_2 ?x303))) (= (+ ?x303 A_2 ?x262 ?x236 ?x372 L_0) 0.0))))
 (let (($x8188 (<= S_4 (+ A_4 (* (- 1.0) A_3) A_1 (* (- 1.0) L_1) (* 2.0 C)))))
 (let (($x54 (= L_1 L_0)))
 (let ((?x7899 (+ ?x236 ?x262 A_2 ?x303)))
 (let (($x7916 (<= (+ A_1 (* (- 1.0) L_0)) ?x7899)))
 (let (($x2505 (= L_2 L_0)))
 (let (($x1295 (not (= L_0 L_1))))
 (let (($x7878 (or $x1295 $x2505 (<= (+ A_1 (* (- 1.0) L_0) L_2 (* (- 1.0) A_2) C) 0.0))))
 (let ((?x219 (* (- 1.0) L_0)))
 (let ((?x1105 (+ A_0 ?x219)))
 (let ((?x245 (* (- 1.0) L_1)))
 (let ((?x603 (+ ?x236 ?x245 A_1 ?x303)))
 (let (($x120 (>= S_4 S_3)))
 (let (($x36 (>= L_0 L0)))
 (let (($x111 (>= S_1 S_0)))
 (let (($x114 (>= S_2 S_1)))
 (let (($x117 (>= S_3 S_2)))
 (let (($x122 (>= A_1 A_0)))
 (let (($x124 (>= A_3 A_2)))
 (let (($x125 (>= A_4 A_3)))
 (and (not (<= (+ A_2 ?x262) S_3)) (<= (+ A_1 ?x245) S_3) $x125 $x124 $x122 $x117 $x114 $x111 $x36 (>= S_3 (+ A_2 ?x262 ?x236)) (>= S_2 (+ A_1 ?x245 ?x236)) (or $x64 (<= S_2 (+ A_2 ?x262 ?x236))) (or $x54 (<= S_1 (+ A_1 ?x245 ?x236))) $x120 (<= ?x603 ?x1105) (or $x54 $x64 (= (+ A_2 ?x262) (+ A_1 ?x245 C))) (or $x1295 (>= S_1 (+ ?x236 ?x219 A_1 ?x303))) (>= S_0 (+ ?x236 ?x245 A_1 (* (- 2.0) C))) (or $x64 (not (<= L_2 L_1))) (or $x64 (<= S_3 (+ A_2 ?x262 ?x236 C))) (>= S_1 ?x603) (or $x1048 (>= S_4 (+ A_2 ?x262 ?x236 C))) (or $x54 (<= S_0 ?x603)) $x7878 (or $x64 (<= S_0 (+ ?x236 ?x262 A_2 (* (- 2.0) C))) $x7916) (<= (+ ?x236 ?x262 A_2 (* (- 2.0) C)) ?x1105) (>= S_1 (+ ?x236 ?x262 A_2 (* (- 2.0) C))) (or $x54 (<= S_2 (+ A_1 ?x245 ?x236 C))) (<= (+ ?x372 L_0 S_1) 0.0) (<= (+ L_0 ?x303 (* (- 1.0) A_0) S_1) 0.0) (or $x54 (not (<= L_1 L_0))) (or $x54 (<= S_4 (+ A_1 ?x245 ?x236 (* 3.0 C)))) (or $x54 (not (= L_1 L_2)) (<= (+ A_2 ?x372 ?x303) 0.0)) (or $x64 (<= S_1 ?x7899)) (>= S_0 (+ ?x236 ?x262 A_2 ?x2207)) (<= (+ L_0 (* (- 2.0) C) (* (- 1.0) A_0) S_2) 0.0) (<= S_4 (+ A_4 ?x262)) (or $x54 (<= S_3 (+ A_1 ?x245 ?x236 (* 2.0 C)))) (or $x1048 (>= S_4 (+ A_1 ?x245 ?x236 (* 2.0 C)))) (>= S_3 (+ A_1 ?x245 ?x236 C)) (<= S_4 (+ A_3 ?x262 C)) (or $x64 (<= S_4 (+ A_4 (* (- 1.0) A_3) A_2 ?x262 C))) (or $x54 $x8188) $x8214 (>= S_2 ?x7899) (or (<= (+ (* 2.0 C) (* (- 1.0) S_3) S_0) 0.0) $x8199) (or (<= (+ A_1 ?x219 (* (- 1.0) S_2)) 0.0) $x8228) $x7459 (<= (+ L_0 ?x372 ?x303 S_2) 0.0) (<= (+ (* (- 2.0) C) S_2 ?x346) 0.0) (or $x8199 (<= (+ C (* (- 1.0) S_2) S_0) 0.0)) (or $x1048 (<= (+ (* 2.0 C) (* (- 1.0) S_4) S_1) 0.0)) (or $x1048 (<= (+ C (* (- 1.0) S_4) S_2) 0.0)) (<= (+ L_0 ?x372 S_3 (* (- 2.0) C)) 0.0) (or $x64 (<= S_4 (+ A_2 ?x262 ?x236 (* 2.0 C)))) $x8136 (or $x1048 $x8228 $x8430) (<= (+ L_0 S_4 ?x372 ?x2207) 0.0) (<= (+ L_0 (* (- 4.0) C) S_4 (* (- 1.0) A_0)) 0.0) (<= (+ (* (- 5.0) C) S_4 (* (- 1.0) S_0)) 0.0) $x8502 $x8525 (<= (+ L_0 ?x2207 ?x236 S_4 ?x380 A_3 (* (- 1.0) A_0)) 0.0) $x8530 $x8520 (<= (+ ?x2207 ?x236 S_4 ?x380 A_3 ?x346) 0.0) $x943 $x774 $x37 (<= (+ (* (- 2.0) C) S_3 (* (- 1.0) S_2)) 0.0) (<= (+ L_0 (* (- 1.0) A_0) S_0) 0.0) (<= (+ ?x2207 S_3 ?x346) 0.0) (<= (+ C (* (- 1.0) S_3) S_1) 0.0) (<= (+ (* (- 2.0) C) S_4 (* (- 1.0) S_3)) 0.0) (<= (+ ?x2207 S_2 (* (- 1.0) S_0)) 0.0) (<= (+ (* (- 2.0) C) S_1 (* (- 1.0) S_0)) 0.0) (<= (+ L_0 ?x2207 S_3 (* (- 1.0) A_0)) 0.0) (<= (+ (* (- 4.0) C) S_3 (* (- 1.0) S_0)) 0.0) (<= (+ (* (- 4.0) C) S_4 ?x346) 0.0) (<= (+ ?x2207 S_4 (* (- 1.0) S_2)) 0.0))))))))))))))))))))))))))))))))))))))))))))
(check-sat)
